100
128
29
17
8
49
61
41
28
35
33
51
44
54
3
10
22
42
4
25
38
15
35
12
43
10
49
31
58
42
9
59
49
20
1
24
27
56
29
5
33
58
35
14
39
7
51
42
34
60
46
54
47
53
23
44
50
63
49
54
37
3
15
17
41
20
1
61
17
4
5
60
10
39
47
58
51
60
3
53
54
18
61
46
21
42
30
58
4
23
25
43
64
47
6
33
63
9
3
21
55
46